p edge 519 509
e 1 2
e 1 3
e 1 4
e 1 5
e 1 6
e 1 7
e 1 8
e 1 9
e 1 10
e 1 11
e 1 12
e 1 13
e 14 15
e 14 16
e 14 17
e 14 18
e 14 19
e 14 20
e 14 21
e 14 22
e 14 23
e 14 24
e 14 25
e 14 26
e 14 27
e 14 28
e 14 29
e 14 30
e 14 31
e 14 32
e 14 33
e 14 34
e 14 35
e 14 36
e 14 37
e 14 38
e 14 39
e 14 40
e 14 41
e 14 42
e 14 43
e 14 44
e 14 45
e 14 46
e 14 47
e 14 48
e 14 49
e 14 50
e 14 51
e 14 52
e 14 53
e 14 54
e 14 55
e 14 56
e 14 57
e 14 58
e 14 59
e 14 60
e 14 61
e 14 62
e 14 63
e 14 64
e 14 65
e 14 66
e 14 67
e 14 68
e 14 69
e 14 70
e 14 71
e 14 72
e 14 73
e 14 74
e 14 75
e 14 76
e 14 77
e 14 78
e 14 79
e 14 80
e 14 81
e 14 82
e 14 83
e 14 84
e 14 85
e 14 86
e 14 87
e 14 88
e 14 89
e 14 90
e 14 91
e 14 92
e 93 94
e 93 95
e 93 96
e 93 97
e 93 98
e 93 99
e 93 100
e 93 101
e 93 102
e 93 103
e 93 104
e 93 105
e 93 106
e 93 107
e 93 108
e 93 109
e 93 110
e 93 111
e 93 112
e 93 113
e 93 114
e 93 115
e 93 116
e 93 117
e 93 118
e 93 119
e 93 120
e 93 121
e 93 122
e 93 123
e 93 124
e 93 125
e 93 126
e 93 127
e 93 128
e 93 129
e 93 130
e 93 131
e 93 132
e 93 133
e 93 134
e 93 135
e 136 137
e 136 138
e 136 139
e 136 140
e 136 141
e 136 142
e 136 143
e 136 144
e 136 145
e 136 146
e 136 147
e 136 148
e 136 149
e 136 150
e 136 151
e 136 152
e 136 153
e 136 154
e 136 155
e 136 156
e 136 157
e 136 158
e 136 159
e 136 160
e 136 161
e 136 162
e 136 163
e 136 164
e 136 165
e 136 166
e 136 167
e 136 168
e 136 169
e 136 170
e 136 171
e 136 172
e 136 173
e 136 174
e 136 175
e 136 176
e 136 177
e 136 178
e 136 179
e 136 180
e 136 181
e 136 182
e 136 183
e 136 184
e 136 185
e 136 186
e 136 187
e 136 188
e 136 189
e 190 191
e 190 192
e 190 193
e 190 194
e 190 195
e 190 196
e 190 197
e 190 198
e 190 199
e 190 200
e 190 201
e 190 202
e 190 203
e 190 204
e 190 205
e 190 206
e 190 207
e 190 208
e 190 209
e 190 210
e 190 211
e 190 212
e 190 213
e 190 214
e 190 215
e 190 216
e 190 217
e 190 218
e 190 219
e 190 220
e 190 221
e 190 222
e 190 223
e 190 224
e 190 225
e 190 226
e 190 227
e 190 228
e 190 229
e 190 230
e 190 231
e 190 232
e 190 233
e 190 234
e 190 235
e 190 236
e 190 237
e 190 238
e 190 239
e 190 240
e 190 241
e 190 242
e 190 243
e 190 244
e 190 245
e 190 246
e 190 247
e 190 248
e 190 249
e 190 250
e 190 251
e 190 252
e 190 253
e 190 254
e 190 255
e 190 256
e 190 257
e 190 258
e 190 259
e 190 260
e 190 261
e 190 262
e 190 263
e 190 264
e 190 265
e 190 266
e 267 268
e 267 269
e 267 270
e 267 271
e 267 272
e 267 273
e 267 274
e 267 275
e 267 276
e 267 277
e 267 278
e 267 279
e 267 280
e 267 281
e 267 282
e 267 283
e 267 284
e 267 285
e 267 286
e 267 287
e 267 288
e 289 290
e 289 291
e 289 292
e 289 293
e 289 294
e 289 295
e 289 296
e 289 297
e 289 298
e 289 299
e 289 300
e 289 301
e 289 302
e 289 303
e 289 304
e 289 305
e 289 306
e 289 307
e 289 308
e 289 309
e 289 310
e 289 311
e 289 312
e 289 313
e 289 314
e 289 315
e 289 316
e 289 317
e 289 318
e 289 319
e 289 320
e 289 321
e 289 322
e 289 323
e 289 324
e 289 325
e 289 326
e 289 327
e 289 328
e 289 329
e 289 330
e 289 331
e 289 332
e 289 333
e 289 334
e 289 335
e 289 336
e 289 337
e 289 338
e 289 339
e 289 340
e 289 341
e 289 342
e 289 343
e 289 344
e 289 345
e 289 346
e 289 347
e 289 348
e 289 349
e 289 350
e 289 351
e 289 352
e 289 353
e 289 354
e 289 355
e 289 356
e 289 357
e 289 358
e 289 359
e 289 360
e 289 361
e 362 363
e 362 364
e 362 365
e 362 366
e 362 367
e 362 368
e 362 369
e 362 370
e 362 371
e 362 372
e 362 373
e 362 374
e 362 375
e 362 376
e 362 377
e 362 378
e 362 379
e 362 380
e 362 381
e 362 382
e 362 383
e 362 384
e 362 385
e 362 386
e 362 387
e 362 388
e 362 389
e 362 390
e 362 391
e 362 392
e 362 393
e 362 394
e 362 395
e 362 396
e 362 397
e 362 398
e 362 399
e 362 400
e 362 401
e 362 402
e 362 403
e 362 404
e 362 405
e 362 406
e 362 407
e 362 408
e 362 409
e 362 410
e 362 411
e 362 412
e 362 413
e 362 414
e 362 415
e 362 416
e 362 417
e 362 418
e 362 419
e 362 420
e 362 421
e 362 422
e 362 423
e 362 424
e 362 425
e 362 426
e 362 427
e 362 428
e 362 429
e 362 430
e 362 431
e 362 432
e 433 434
e 433 435
e 433 436
e 433 437
e 433 438
e 433 439
e 433 440
e 433 441
e 433 442
e 433 443
e 433 444
e 433 445
e 433 446
e 433 447
e 433 448
e 433 449
e 433 450
e 433 451
e 433 452
e 433 453
e 433 454
e 433 455
e 433 456
e 433 457
e 433 458
e 433 459
e 433 460
e 433 461
e 433 462
e 433 463
e 433 464
e 465 466
e 465 467
e 465 468
e 465 469
e 465 470
e 465 471
e 465 472
e 465 473
e 465 474
e 465 475
e 465 476
e 465 477
e 465 478
e 465 479
e 465 480
e 465 481
e 465 482
e 465 483
e 465 484
e 465 485
e 465 486
e 465 487
e 465 488
e 465 489
e 465 490
e 465 491
e 465 492
e 465 493
e 465 494
e 465 495
e 465 496
e 465 497
e 465 498
e 465 499
e 465 500
e 465 501
e 465 502
e 465 503
e 465 504
e 465 505
e 465 506
e 465 507
e 465 508
e 465 509
e 465 510
e 465 511
e 465 512
e 465 513
e 465 514
e 465 515
e 465 516
e 465 517
e 465 518
e 465 519
